Fe bcc
1.0
 -1.409100000000   1.409100000000   1.409100000000
  1.409100000000  -1.409100000000   1.409100000000
  1.409100000000   1.409100000000  -1.409100000000
Fe
1
Direct
  0.000000000000   0.000000000000   0.000000000000
