POSCAR generated by EDOPING             
   1.00000000000000     
    11.9098609670987727    0.0000000000000000    0.0000000000000000
     0.0000000000000010   11.9098609670987727    0.0000000000000000
     0.0000000000000010    0.0000000000000010   11.9098609670987727
   Ni   Nb   Fe   Sb
     1    32    32    32
Direct
  0.1250000000000000  0.1250000000000000  0.1250000000000000
 -0.0029844455266549 -0.0029844455266549 -0.0029844455266549
 -0.0001229531569140 -0.0001229531569140  0.5002714829512002
 -0.0001229531569140  0.5002714829512002 -0.0001229531569140
 -0.0002756272010115  0.5002898002158590  0.5002898002158590
  0.5002714829512002 -0.0001229531569140 -0.0001229531569140
  0.5002898002158590 -0.0002756272010115  0.5002898002158590
  0.5002898002158590  0.5002898002158590 -0.0002756272010115
  0.5000123496110126  0.5000123496110126  0.5000123496110126
 -0.0029844455266549  0.2529844455266549  0.2529844455266549
 -0.0001229531569140  0.2501229531569141  0.7497285170487999
 -0.0001229531569140  0.7497285170487999  0.2501229531569141
 -0.0002756272010115  0.7497101997841410  0.7497101997841410
  0.5002714829512002  0.2501229531569141  0.2501229531569141
  0.5002898002158590  0.2502756272010116  0.7497101997841410
  0.5002898002158590  0.7497101997841410  0.2502756272010116
  0.5000123496110126  0.7499876503889874  0.7499876503889874
  0.2529844455266549 -0.0029844455266549  0.2529844455266549
  0.2501229531569141 -0.0001229531569140  0.7497285170487999
  0.2501229531569141  0.5002714829512002  0.2501229531569141
  0.2502756272010116  0.5002898002158590  0.7497101997841410
  0.7497285170487999 -0.0001229531569140  0.2501229531569141
  0.7497101997841410 -0.0002756272010115  0.7497101997841410
  0.7497101997841410  0.5002898002158590  0.2502756272010116
  0.7499876503889874  0.5000123496110126  0.7499876503889874
  0.2529844455266549  0.2529844455266549 -0.0029844455266549
  0.2501229531569141  0.2501229531569141  0.5002714829512002
  0.2501229531569141  0.7497285170487999 -0.0001229531569140
  0.2502756272010116  0.7497101997841410  0.5002898002158590
  0.7497285170487999  0.2501229531569141 -0.0001229531569140
  0.7497101997841410  0.2502756272010116  0.5002898002158590
  0.7497101997841410  0.7497101997841410 -0.0002756272010115
  0.7499876503889874  0.7499876503889874  0.5000123496110126
  0.1250000000000000  0.1250000000000000  0.3754564121179314
  0.1250000000000000  0.1250000000000000  0.8745435878820684
  0.1250000000000000  0.6250000000000000  0.3748860742556317
  0.1250000000000000  0.6250000000000000  0.8751139257443685
  0.6250000000000000  0.1250000000000000  0.3748860742556317
  0.6250000000000000  0.1250000000000000  0.8751139257443685
  0.6250000000000000  0.6250000000000000  0.3746515740427901
  0.6250000000000000  0.6250000000000000  0.8753484259572099
  0.1250000000000000  0.3754564121179314  0.1250000000000000
  0.1250000000000000  0.3748860742556317  0.6250000000000000
  0.1250000000000000  0.8745435878820684  0.1250000000000000
  0.1250000000000000  0.8751139257443685  0.6250000000000000
  0.6250000000000000  0.3748860742556317  0.1250000000000000
  0.6250000000000000  0.3746515740427901  0.6250000000000000
  0.6250000000000000  0.8751139257443685  0.1250000000000000
  0.6250000000000000  0.8753484259572099  0.6250000000000000
  0.3754564121179314  0.1250000000000000  0.1250000000000000
  0.3748860742556317  0.1250000000000000  0.6250000000000000
  0.3748860742556317  0.6250000000000000  0.1250000000000000
  0.3746515740427901  0.6250000000000000  0.6250000000000000
  0.8745435878820684  0.1250000000000000  0.1250000000000000
  0.8751139257443685  0.1250000000000000  0.6250000000000000
  0.8751139257443685  0.6250000000000000  0.1250000000000000
  0.8753484259572099  0.6250000000000000  0.6250000000000000
  0.3761050465851717  0.3761050465851717  0.3761050465851717
  0.3762092300030987  0.3762092300030987  0.8737907699969014
  0.3762092300030987  0.8737907699969014  0.3762092300030987
  0.3761050465851717  0.8738949534148281  0.8738949534148281
  0.8737907699969014  0.3762092300030987  0.3762092300030987
  0.8738949534148281  0.3761050465851717  0.8738949534148281
  0.8738949534148281  0.8738949534148281  0.3761050465851717
  0.8737907699969014  0.8737907699969014  0.8737907699969014
  0.2520731611928504 -0.0020731611928504 -0.0020731611928504
  0.2501028126341152 -0.0001028126341151  0.5005541654489046
  0.2501028126341152  0.5005541654489046 -0.0001028126341151
  0.2498541505247233  0.5000758884001431  0.5000758884001431
  0.7494458345510954 -0.0001028126341151 -0.0001028126341151
  0.7499241115998569  0.0001458494752766  0.5000758884001431
  0.7499241115998569  0.5000758884001431  0.0001458494752766
  0.7496228330158941  0.5003771669841061  0.5003771669841061
  0.2520731611928504  0.2520731611928504  0.2520731611928504
  0.2501028126341152  0.2501028126341152  0.7494458345510954
  0.2501028126341152  0.7494458345510954  0.2501028126341152
  0.2498541505247233  0.7499241115998569  0.7499241115998569
  0.7494458345510954  0.2501028126341152  0.2501028126341152
  0.7499241115998569  0.2498541505247233  0.7499241115998569
  0.7499241115998569  0.7499241115998569  0.2498541505247233
  0.7496228330158941  0.7496228330158941  0.7496228330158941
 -0.0020731611928504 -0.0020731611928504  0.2520731611928504
 -0.0001028126341151 -0.0001028126341151  0.7494458345510954
 -0.0001028126341151  0.5005541654489046  0.2501028126341152
  0.0001458494752766  0.5000758884001431  0.7499241115998569
  0.5005541654489046 -0.0001028126341151  0.2501028126341152
  0.5000758884001431  0.0001458494752766  0.7499241115998569
  0.5000758884001431  0.5000758884001431  0.2498541505247233
  0.5003771669841061  0.5003771669841061  0.7496228330158941
 -0.0020731611928504  0.2520731611928504 -0.0020731611928504
 -0.0001028126341151  0.2501028126341152  0.5005541654489046
 -0.0001028126341151  0.7494458345510954 -0.0001028126341151
  0.0001458494752766  0.7499241115998569  0.5000758884001431
  0.5005541654489046  0.2501028126341152 -0.0001028126341151
  0.5000758884001431  0.2498541505247233  0.5000758884001431
  0.5000758884001431  0.7499241115998569  0.0001458494752766
  0.5003771669841061  0.7496228330158941  0.5003771669841061
 
  0.00000000E+00  0.00000000E+00  0.00000000E+00
  0.00000000E+00  0.00000000E+00  0.00000000E+00
  0.00000000E+00  0.00000000E+00  0.00000000E+00
  0.00000000E+00  0.00000000E+00  0.00000000E+00
  0.00000000E+00  0.00000000E+00  0.00000000E+00
  0.00000000E+00  0.00000000E+00  0.00000000E+00
  0.00000000E+00  0.00000000E+00  0.00000000E+00
  0.00000000E+00  0.00000000E+00  0.00000000E+00
  0.00000000E+00  0.00000000E+00  0.00000000E+00
  0.00000000E+00  0.00000000E+00  0.00000000E+00
  0.00000000E+00  0.00000000E+00  0.00000000E+00
  0.00000000E+00  0.00000000E+00  0.00000000E+00
  0.00000000E+00  0.00000000E+00  0.00000000E+00
  0.00000000E+00  0.00000000E+00  0.00000000E+00
  0.00000000E+00  0.00000000E+00  0.00000000E+00
  0.00000000E+00  0.00000000E+00  0.00000000E+00
  0.00000000E+00  0.00000000E+00  0.00000000E+00
  0.00000000E+00  0.00000000E+00  0.00000000E+00
  0.00000000E+00  0.00000000E+00  0.00000000E+00
  0.00000000E+00  0.00000000E+00  0.00000000E+00
  0.00000000E+00  0.00000000E+00  0.00000000E+00
  0.00000000E+00  0.00000000E+00  0.00000000E+00
  0.00000000E+00  0.00000000E+00  0.00000000E+00
  0.00000000E+00  0.00000000E+00  0.00000000E+00
  0.00000000E+00  0.00000000E+00  0.00000000E+00
  0.00000000E+00  0.00000000E+00  0.00000000E+00
  0.00000000E+00  0.00000000E+00  0.00000000E+00
  0.00000000E+00  0.00000000E+00  0.00000000E+00
  0.00000000E+00  0.00000000E+00  0.00000000E+00
  0.00000000E+00  0.00000000E+00  0.00000000E+00
  0.00000000E+00  0.00000000E+00  0.00000000E+00
  0.00000000E+00  0.00000000E+00  0.00000000E+00
  0.00000000E+00  0.00000000E+00  0.00000000E+00
  0.00000000E+00  0.00000000E+00  0.00000000E+00
  0.00000000E+00  0.00000000E+00  0.00000000E+00
  0.00000000E+00  0.00000000E+00  0.00000000E+00
  0.00000000E+00  0.00000000E+00  0.00000000E+00
  0.00000000E+00  0.00000000E+00  0.00000000E+00
  0.00000000E+00  0.00000000E+00  0.00000000E+00
  0.00000000E+00  0.00000000E+00  0.00000000E+00
  0.00000000E+00  0.00000000E+00  0.00000000E+00
  0.00000000E+00  0.00000000E+00  0.00000000E+00
  0.00000000E+00  0.00000000E+00  0.00000000E+00
  0.00000000E+00  0.00000000E+00  0.00000000E+00
  0.00000000E+00  0.00000000E+00  0.00000000E+00
  0.00000000E+00  0.00000000E+00  0.00000000E+00
  0.00000000E+00  0.00000000E+00  0.00000000E+00
  0.00000000E+00  0.00000000E+00  0.00000000E+00
  0.00000000E+00  0.00000000E+00  0.00000000E+00
  0.00000000E+00  0.00000000E+00  0.00000000E+00
  0.00000000E+00  0.00000000E+00  0.00000000E+00
  0.00000000E+00  0.00000000E+00  0.00000000E+00
  0.00000000E+00  0.00000000E+00  0.00000000E+00
  0.00000000E+00  0.00000000E+00  0.00000000E+00
  0.00000000E+00  0.00000000E+00  0.00000000E+00
  0.00000000E+00  0.00000000E+00  0.00000000E+00
  0.00000000E+00  0.00000000E+00  0.00000000E+00
  0.00000000E+00  0.00000000E+00  0.00000000E+00
  0.00000000E+00  0.00000000E+00  0.00000000E+00
  0.00000000E+00  0.00000000E+00  0.00000000E+00
  0.00000000E+00  0.00000000E+00  0.00000000E+00
  0.00000000E+00  0.00000000E+00  0.00000000E+00
  0.00000000E+00  0.00000000E+00  0.00000000E+00
  0.00000000E+00  0.00000000E+00  0.00000000E+00
  0.00000000E+00  0.00000000E+00  0.00000000E+00
  0.00000000E+00  0.00000000E+00  0.00000000E+00
  0.00000000E+00  0.00000000E+00  0.00000000E+00
  0.00000000E+00  0.00000000E+00  0.00000000E+00
  0.00000000E+00  0.00000000E+00  0.00000000E+00
  0.00000000E+00  0.00000000E+00  0.00000000E+00
  0.00000000E+00  0.00000000E+00  0.00000000E+00
  0.00000000E+00  0.00000000E+00  0.00000000E+00
  0.00000000E+00  0.00000000E+00  0.00000000E+00
  0.00000000E+00  0.00000000E+00  0.00000000E+00
  0.00000000E+00  0.00000000E+00  0.00000000E+00
  0.00000000E+00  0.00000000E+00  0.00000000E+00
  0.00000000E+00  0.00000000E+00  0.00000000E+00
  0.00000000E+00  0.00000000E+00  0.00000000E+00
  0.00000000E+00  0.00000000E+00  0.00000000E+00
  0.00000000E+00  0.00000000E+00  0.00000000E+00
  0.00000000E+00  0.00000000E+00  0.00000000E+00
  0.00000000E+00  0.00000000E+00  0.00000000E+00
  0.00000000E+00  0.00000000E+00  0.00000000E+00
  0.00000000E+00  0.00000000E+00  0.00000000E+00
  0.00000000E+00  0.00000000E+00  0.00000000E+00
  0.00000000E+00  0.00000000E+00  0.00000000E+00
  0.00000000E+00  0.00000000E+00  0.00000000E+00
  0.00000000E+00  0.00000000E+00  0.00000000E+00
  0.00000000E+00  0.00000000E+00  0.00000000E+00
  0.00000000E+00  0.00000000E+00  0.00000000E+00
  0.00000000E+00  0.00000000E+00  0.00000000E+00
  0.00000000E+00  0.00000000E+00  0.00000000E+00
  0.00000000E+00  0.00000000E+00  0.00000000E+00
  0.00000000E+00  0.00000000E+00  0.00000000E+00
  0.00000000E+00  0.00000000E+00  0.00000000E+00
  0.00000000E+00  0.00000000E+00  0.00000000E+00
  0.00000000E+00  0.00000000E+00  0.00000000E+00
