POSCAR generated by EDOPING
   1.000
    11.909860967098773     0.000000000000000     0.000000000000000
     0.000000000000001    11.909860967098773     0.000000000000000
     0.000000000000001     0.000000000000001    11.909860967098773
   Ni   Nb   Fe   Sb
    1   32   32   32
Direct
     0.125000000000000     0.125000000000000     0.125000000000000    Ni1
     0.000000000000000     0.000000000000000     0.000000000000000    Nb1
     0.000000000000000     0.000000000000000     0.500000000000000    Nb2
     0.000000000000000     0.500000000000000     0.000000000000000    Nb3
     0.000000000000000     0.500000000000000     0.500000000000000    Nb4
     0.500000000000000     0.000000000000000     0.000000000000000    Nb5
     0.500000000000000     0.000000000000000     0.500000000000000    Nb6
     0.500000000000000     0.500000000000000     0.000000000000000    Nb7
     0.500000000000000     0.500000000000000     0.500000000000000    Nb8
     0.000000000000000     0.250000000000000     0.250000000000000    Nb9
     0.000000000000000     0.250000000000000     0.750000000000000    Nb10
     0.000000000000000     0.750000000000000     0.250000000000000    Nb11
     0.000000000000000     0.750000000000000     0.750000000000000    Nb12
     0.500000000000000     0.250000000000000     0.250000000000000    Nb13
     0.500000000000000     0.250000000000000     0.750000000000000    Nb14
     0.500000000000000     0.750000000000000     0.250000000000000    Nb15
     0.500000000000000     0.750000000000000     0.750000000000000    Nb16
     0.250000000000000     0.000000000000000     0.250000000000000    Nb17
     0.250000000000000     0.000000000000000     0.750000000000000    Nb18
     0.250000000000000     0.500000000000000     0.250000000000000    Nb19
     0.250000000000000     0.500000000000000     0.750000000000000    Nb20
     0.750000000000000     0.000000000000000     0.250000000000000    Nb21
     0.750000000000000     0.000000000000000     0.750000000000000    Nb22
     0.750000000000000     0.500000000000000     0.250000000000000    Nb23
     0.750000000000000     0.500000000000000     0.750000000000000    Nb24
     0.250000000000000     0.250000000000000     0.000000000000000    Nb25
     0.250000000000000     0.250000000000000     0.500000000000000    Nb26
     0.250000000000000     0.750000000000000     0.000000000000000    Nb27
     0.250000000000000     0.750000000000000     0.500000000000000    Nb28
     0.750000000000000     0.250000000000000     0.000000000000000    Nb29
     0.750000000000000     0.250000000000000     0.500000000000000    Nb30
     0.750000000000000     0.750000000000000     0.000000000000000    Nb31
     0.750000000000000     0.750000000000000     0.500000000000000    Nb32
     0.125000000000000     0.125000000000000     0.375000000000000    Fe1
     0.125000000000000     0.125000000000000     0.875000000000000    Fe2
     0.125000000000000     0.625000000000000     0.375000000000000    Fe3
     0.125000000000000     0.625000000000000     0.875000000000000    Fe4
     0.625000000000000     0.125000000000000     0.375000000000000    Fe5
     0.625000000000000     0.125000000000000     0.875000000000000    Fe6
     0.625000000000000     0.625000000000000     0.375000000000000    Fe7
     0.625000000000000     0.625000000000000     0.875000000000000    Fe8
     0.125000000000000     0.375000000000000     0.125000000000000    Fe9
     0.125000000000000     0.375000000000000     0.625000000000000    Fe10
     0.125000000000000     0.875000000000000     0.125000000000000    Fe11
     0.125000000000000     0.875000000000000     0.625000000000000    Fe12
     0.625000000000000     0.375000000000000     0.125000000000000    Fe13
     0.625000000000000     0.375000000000000     0.625000000000000    Fe14
     0.625000000000000     0.875000000000000     0.125000000000000    Fe15
     0.625000000000000     0.875000000000000     0.625000000000000    Fe16
     0.375000000000000     0.125000000000000     0.125000000000000    Fe17
     0.375000000000000     0.125000000000000     0.625000000000000    Fe18
     0.375000000000000     0.625000000000000     0.125000000000000    Fe19
     0.375000000000000     0.625000000000000     0.625000000000000    Fe20
     0.875000000000000     0.125000000000000     0.125000000000000    Fe21
     0.875000000000000     0.125000000000000     0.625000000000000    Fe22
     0.875000000000000     0.625000000000000     0.125000000000000    Fe23
     0.875000000000000     0.625000000000000     0.625000000000000    Fe24
     0.375000000000000     0.375000000000000     0.375000000000000    Fe25
     0.375000000000000     0.375000000000000     0.875000000000000    Fe26
     0.375000000000000     0.875000000000000     0.375000000000000    Fe27
     0.375000000000000     0.875000000000000     0.875000000000000    Fe28
     0.875000000000000     0.375000000000000     0.375000000000000    Fe29
     0.875000000000000     0.375000000000000     0.875000000000000    Fe30
     0.875000000000000     0.875000000000000     0.375000000000000    Fe31
     0.875000000000000     0.875000000000000     0.875000000000000    Fe32
     0.250000000000000     0.000000000000000     0.000000000000000    Sb1
     0.250000000000000     0.000000000000000     0.500000000000000    Sb2
     0.250000000000000     0.500000000000000     0.000000000000000    Sb3
     0.250000000000000     0.500000000000000     0.500000000000000    Sb4
     0.750000000000000     0.000000000000000     0.000000000000000    Sb5
     0.750000000000000     0.000000000000000     0.500000000000000    Sb6
     0.750000000000000     0.500000000000000     0.000000000000000    Sb7
     0.750000000000000     0.500000000000000     0.500000000000000    Sb8
     0.250000000000000     0.250000000000000     0.250000000000000    Sb9
     0.250000000000000     0.250000000000000     0.750000000000000    Sb10
     0.250000000000000     0.750000000000000     0.250000000000000    Sb11
     0.250000000000000     0.750000000000000     0.750000000000000    Sb12
     0.750000000000000     0.250000000000000     0.250000000000000    Sb13
     0.750000000000000     0.250000000000000     0.750000000000000    Sb14
     0.750000000000000     0.750000000000000     0.250000000000000    Sb15
     0.750000000000000     0.750000000000000     0.750000000000000    Sb16
     0.000000000000000     0.000000000000000     0.250000000000000    Sb17
     0.000000000000000     0.000000000000000     0.750000000000000    Sb18
     0.000000000000000     0.500000000000000     0.250000000000000    Sb19
     0.000000000000000     0.500000000000000     0.750000000000000    Sb20
     0.500000000000000     0.000000000000000     0.250000000000000    Sb21
     0.500000000000000     0.000000000000000     0.750000000000000    Sb22
     0.500000000000000     0.500000000000000     0.250000000000000    Sb23
     0.500000000000000     0.500000000000000     0.750000000000000    Sb24
     0.000000000000000     0.250000000000000     0.000000000000000    Sb25
     0.000000000000000     0.250000000000000     0.500000000000000    Sb26
     0.000000000000000     0.750000000000000     0.000000000000000    Sb27
     0.000000000000000     0.750000000000000     0.500000000000000    Sb28
     0.500000000000000     0.250000000000000     0.000000000000000    Sb29
     0.500000000000000     0.250000000000000     0.500000000000000    Sb30
     0.500000000000000     0.750000000000000     0.000000000000000    Sb31
     0.500000000000000     0.750000000000000     0.500000000000000    Sb32
