Global Parameters
ISTART =  0            (Read existing wavefunction; if there)
ISPIN  =  1            (Non-Spin polarised DFT)
LREAL  = .FALSE.       (Projection operators: automatic)
ENCUT  =  500          (Cut-off energy for plane wave basis set, in eV)
PREC   =  Accurate     (Precision level)
LWAVE  = .FALSE.       (Write WAVECAR or not)
LCHARG = .FALSE.       (Write CHGCAR or not)

Static Calculation
NSW    = 1
IBRION =  8
ISMEAR =  0            (gaussian smearing method)
SIGMA  =  0.01         (please check the width of the smearing)
NELM   =  60           (Max electronic SCF steps)
EDIFF  =  1E-08        (SCF energy convergence; in eV)

Macroscopic Dielectric Tensor
LEPSILON = .TRUE.
LPEAD = .TRUE.
