NbFeSb primitive cell
 1.000000
    0.0000000000000000    2.9774652417746932    2.9774652417746932
    2.9774652417746932    0.0000000000000000    2.9774652417746932
    2.9774652417746932    2.9774652417746932    0.0000000000000000
   Nb   Fe   Sb
     1     1     1
Direct
    0.0000000000000000    0.0000000000000000    0.0000000000000000    Nb001
    0.7500000000000000    0.7500000000000000    0.7500000000000000    Fe001
    0.5000000000000000    0.5000000000000000    0.5000000000000000    Sb001
