Sb R-3m
1.0
  2.189362291171   1.264028908161   3.815586982270
 -2.189362291171   1.264028908161   3.815586982270
  0.000000000000  -2.528057816322   3.815586982270
Sb
2
Direct
  0.233624448071   0.233624448071   0.233624448071
  0.766375551929   0.766375551929   0.766375551929
