K-Spacing Value to Generate K-Mesh: 0.020
0
Monkhorst-Pack
   8   8   8
0.0  0.0  0.0
