Mn bcc
1.0
 -4.262760000000   4.262760000000   4.262760000000
  4.262760000000  -4.262760000000   4.262760000000
  4.262760000000   4.262760000000  -4.262760000000
Mn
29
Direct
  0.000000000000   0.000000000000   0.000000000000
  0.364357833892   0.000000000000   0.000000000000
  0.606380607869   0.319148861301   0.000000000000
  0.000000000000   0.364357833892   0.000000000000
  0.319148861301   0.606380607869   0.000000000000
  0.807034644221   0.630329880172   0.000000000000
  0.630329880172   0.807034644221   0.000000000000
  0.369670119828   0.369670119828   0.176704764050
  0.823295235950   0.192965355779   0.192965355779
  0.192965355779   0.823295235950   0.192965355779
  0.680851138699   0.680851138699   0.287231746568
  0.000000000000   0.606380607869   0.319148861301
  0.606380607869   0.000000000000   0.319148861301
  0.000000000000   0.000000000000   0.364357833892
  0.369670119828   0.176704764050   0.369670119828
  0.176704764050   0.369670119828   0.369670119828
  0.712768253432   0.393619392131   0.393619392131
  0.393619392131   0.712768253432   0.393619392131
  0.319148861301   0.000000000000   0.606380607869
  0.000000000000   0.319148861301   0.606380607869
  0.807034644221   0.000000000000   0.630329880172
  0.000000000000   0.807034644221   0.630329880172
  0.635642166108   0.635642166108   0.635642166108
  0.680851138699   0.287231746568   0.680851138699
  0.287231746568   0.680851138699   0.680851138699
  0.393619392131   0.393619392131   0.712768253432
  0.630329880172   0.000000000000   0.807034644221
  0.000000000000   0.630329880172   0.807034644221
  0.192965355779   0.192965355779   0.823295235950
