NbFeSb 2x2x2 supercell with interstitial
   1.00000000000000     
    11.9098609670987727    0.0000000000000000    0.0000000000000000
     0.0000000000000007   11.9098609670987727    0.0000000000000000
     0.0000000000000007    0.0000000000000007   11.9098609670987727
   Mn   Nb   Fe   Sb
     1    32    32    32
Direct
  0.1250000000000000  0.1250000000000000  0.1250000000000000
 -0.0021742525524108 -0.0021742525524108 -0.0021742525524108
 -0.0003593920732290 -0.0003593920732290  0.5009889460260882
 -0.0003593920732290  0.5009889460260882 -0.0003593920732290
 -0.0003333891209191  0.5000415237813606  0.5000415237813606
  0.5009889460260882 -0.0003593920732290 -0.0003593920732290
  0.5000415237813606 -0.0003333891209191  0.5000415237813606
  0.5000415237813606  0.5000415237813606 -0.0003333891209191
  0.5002543299338570  0.5002543299338570  0.5002543299338570
 -0.0021742525524108  0.2521742525524107  0.2521742525524107
 -0.0003593920732290  0.2503593920732291  0.7490110539739118
 -0.0003593920732290  0.7490110539739118  0.2503593920732291
 -0.0003333891209191  0.7499584762186394  0.7499584762186394
  0.5009889460260882  0.2503593920732291  0.2503593920732291
  0.5000415237813606  0.2503333891209191  0.7499584762186394
  0.5000415237813606  0.7499584762186394  0.2503333891209191
  0.5002543299338570  0.7497456700661430  0.7497456700661430
  0.2521742525524107 -0.0021742525524108  0.2521742525524107
  0.2503593920732291 -0.0003593920732290  0.7490110539739118
  0.2503593920732291  0.5009889460260882  0.2503593920732291
  0.2503333891209191  0.5000415237813606  0.7499584762186394
  0.7490110539739118 -0.0003593920732290  0.2503593920732291
  0.7499584762186394 -0.0003333891209191  0.7499584762186394
  0.7499584762186394  0.5000415237813606  0.2503333891209191
  0.7497456700661430  0.5002543299338570  0.7497456700661430
  0.2521742525524107  0.2521742525524107 -0.0021742525524108
  0.2503593920732291  0.2503593920732291  0.5009889460260882
  0.2503593920732291  0.7490110539739118 -0.0003593920732290
  0.2503333891209191  0.7499584762186394  0.5000415237813606
  0.7490110539739118  0.2503593920732291 -0.0003593920732290
  0.7499584762186394  0.2503333891209191  0.5000415237813606
  0.7499584762186394  0.7499584762186394 -0.0003333891209191
  0.7497456700661430  0.7497456700661430  0.5002543299338570
  0.1250000000000000  0.1250000000000000  0.3718725130930439
  0.1250000000000000  0.1250000000000000  0.8781274869069560
  0.1250000000000000  0.6250000000000000  0.3741494350393003
  0.1250000000000000  0.6250000000000000  0.8758505649606997
  0.6250000000000000  0.1250000000000000  0.3741494350393003
  0.6250000000000000  0.1250000000000000  0.8758505649606997
  0.6250000000000000  0.6250000000000000  0.3745814271189500
  0.6250000000000000  0.6250000000000000  0.8754185728810500
  0.1250000000000000  0.3718725130930439  0.1250000000000000
  0.1250000000000000  0.3741494350393003  0.6250000000000000
  0.1250000000000000  0.8781274869069560  0.1250000000000000
  0.1250000000000000  0.8758505649606997  0.6250000000000000
  0.6250000000000000  0.3741494350393003  0.1250000000000000
  0.6250000000000000  0.3745814271189500  0.6250000000000000
  0.6250000000000000  0.8758505649606997  0.1250000000000000
  0.6250000000000000  0.8754185728810500  0.6250000000000000
  0.3718725130930439  0.1250000000000000  0.1250000000000000
  0.3741494350393003  0.1250000000000000  0.6250000000000000
  0.3741494350393003  0.6250000000000000  0.1250000000000000
  0.3745814271189500  0.6250000000000000  0.6250000000000000
  0.8781274869069560  0.1250000000000000  0.1250000000000000
  0.8758505649606997  0.1250000000000000  0.6250000000000000
  0.8758505649606997  0.6250000000000000  0.1250000000000000
  0.8754185728810500  0.6250000000000000  0.6250000000000000
  0.3764342094868629  0.3764342094868629  0.3764342094868629
  0.3763932526698408  0.3763932526698408  0.8736067473301593
  0.3763932526698408  0.8736067473301593  0.3763932526698408
  0.3764342094868629  0.8735657905131370  0.8735657905131370
  0.8736067473301593  0.3763932526698408  0.3763932526698408
  0.8735657905131370  0.3764342094868629  0.8735657905131370
  0.8735657905131370  0.8735657905131370  0.3764342094868629
  0.8736067473301593  0.8736067473301593  0.8736067473301593
  0.2537561949776579 -0.0037561949776579 -0.0037561949776579
  0.2497254015673491  0.0002745984326509  0.4997500119102625
  0.2497254015673491  0.4997500119102625  0.0002745984326509
  0.2497369550435563  0.5002633160137419  0.5002633160137419
  0.7502499880897373  0.0002745984326509  0.0002745984326509
  0.7497366839862581  0.0002630449564437  0.5002633160137419
  0.7497366839862581  0.5002633160137419  0.0002630449564437
  0.7496566151759723  0.5003433848240276  0.5003433848240276
  0.2537561949776579  0.2537561949776579  0.2537561949776579
  0.2497254015673491  0.2497254015673491  0.7502499880897373
  0.2497254015673491  0.7502499880897373  0.2497254015673491
  0.2497369550435563  0.7497366839862581  0.7497366839862581
  0.7502499880897373  0.2497254015673491  0.2497254015673491
  0.7497366839862581  0.2497369550435563  0.7497366839862581
  0.7497366839862581  0.7497366839862581  0.2497369550435563
  0.7496566151759723  0.7496566151759723  0.7496566151759723
 -0.0037561949776579 -0.0037561949776579  0.2537561949776579
  0.0002745984326509  0.0002745984326509  0.7502499880897373
  0.0002745984326509  0.4997500119102625  0.2497254015673491
  0.0002630449564437  0.5002633160137419  0.7497366839862581
  0.4997500119102625  0.0002745984326509  0.2497254015673491
  0.5002633160137419  0.0002630449564437  0.7497366839862581
  0.5002633160137419  0.5002633160137419  0.2497369550435563
  0.5003433848240276  0.5003433848240276  0.7496566151759723
 -0.0037561949776579  0.2537561949776579 -0.0037561949776579
  0.0002745984326509  0.2497254015673491  0.4997500119102625
  0.0002745984326509  0.7502499880897373  0.0002745984326509
  0.0002630449564437  0.7497366839862581  0.5002633160137419
  0.4997500119102625  0.2497254015673491  0.0002745984326509
  0.5002633160137419  0.2497369550435563  0.5002633160137419
  0.5002633160137419  0.7497366839862581  0.0002630449564437
  0.5003433848240276  0.7496566151759723  0.5003433848240276
 
  0.00000000E+00  0.00000000E+00  0.00000000E+00
  0.00000000E+00  0.00000000E+00  0.00000000E+00
  0.00000000E+00  0.00000000E+00  0.00000000E+00
  0.00000000E+00  0.00000000E+00  0.00000000E+00
  0.00000000E+00  0.00000000E+00  0.00000000E+00
  0.00000000E+00  0.00000000E+00  0.00000000E+00
  0.00000000E+00  0.00000000E+00  0.00000000E+00
  0.00000000E+00  0.00000000E+00  0.00000000E+00
  0.00000000E+00  0.00000000E+00  0.00000000E+00
  0.00000000E+00  0.00000000E+00  0.00000000E+00
  0.00000000E+00  0.00000000E+00  0.00000000E+00
  0.00000000E+00  0.00000000E+00  0.00000000E+00
  0.00000000E+00  0.00000000E+00  0.00000000E+00
  0.00000000E+00  0.00000000E+00  0.00000000E+00
  0.00000000E+00  0.00000000E+00  0.00000000E+00
  0.00000000E+00  0.00000000E+00  0.00000000E+00
  0.00000000E+00  0.00000000E+00  0.00000000E+00
  0.00000000E+00  0.00000000E+00  0.00000000E+00
  0.00000000E+00  0.00000000E+00  0.00000000E+00
  0.00000000E+00  0.00000000E+00  0.00000000E+00
  0.00000000E+00  0.00000000E+00  0.00000000E+00
  0.00000000E+00  0.00000000E+00  0.00000000E+00
  0.00000000E+00  0.00000000E+00  0.00000000E+00
  0.00000000E+00  0.00000000E+00  0.00000000E+00
  0.00000000E+00  0.00000000E+00  0.00000000E+00
  0.00000000E+00  0.00000000E+00  0.00000000E+00
  0.00000000E+00  0.00000000E+00  0.00000000E+00
  0.00000000E+00  0.00000000E+00  0.00000000E+00
  0.00000000E+00  0.00000000E+00  0.00000000E+00
  0.00000000E+00  0.00000000E+00  0.00000000E+00
  0.00000000E+00  0.00000000E+00  0.00000000E+00
  0.00000000E+00  0.00000000E+00  0.00000000E+00
  0.00000000E+00  0.00000000E+00  0.00000000E+00
  0.00000000E+00  0.00000000E+00  0.00000000E+00
  0.00000000E+00  0.00000000E+00  0.00000000E+00
  0.00000000E+00  0.00000000E+00  0.00000000E+00
  0.00000000E+00  0.00000000E+00  0.00000000E+00
  0.00000000E+00  0.00000000E+00  0.00000000E+00
  0.00000000E+00  0.00000000E+00  0.00000000E+00
  0.00000000E+00  0.00000000E+00  0.00000000E+00
  0.00000000E+00  0.00000000E+00  0.00000000E+00
  0.00000000E+00  0.00000000E+00  0.00000000E+00
  0.00000000E+00  0.00000000E+00  0.00000000E+00
  0.00000000E+00  0.00000000E+00  0.00000000E+00
  0.00000000E+00  0.00000000E+00  0.00000000E+00
  0.00000000E+00  0.00000000E+00  0.00000000E+00
  0.00000000E+00  0.00000000E+00  0.00000000E+00
  0.00000000E+00  0.00000000E+00  0.00000000E+00
  0.00000000E+00  0.00000000E+00  0.00000000E+00
  0.00000000E+00  0.00000000E+00  0.00000000E+00
  0.00000000E+00  0.00000000E+00  0.00000000E+00
  0.00000000E+00  0.00000000E+00  0.00000000E+00
  0.00000000E+00  0.00000000E+00  0.00000000E+00
  0.00000000E+00  0.00000000E+00  0.00000000E+00
  0.00000000E+00  0.00000000E+00  0.00000000E+00
  0.00000000E+00  0.00000000E+00  0.00000000E+00
  0.00000000E+00  0.00000000E+00  0.00000000E+00
  0.00000000E+00  0.00000000E+00  0.00000000E+00
  0.00000000E+00  0.00000000E+00  0.00000000E+00
  0.00000000E+00  0.00000000E+00  0.00000000E+00
  0.00000000E+00  0.00000000E+00  0.00000000E+00
  0.00000000E+00  0.00000000E+00  0.00000000E+00
  0.00000000E+00  0.00000000E+00  0.00000000E+00
  0.00000000E+00  0.00000000E+00  0.00000000E+00
  0.00000000E+00  0.00000000E+00  0.00000000E+00
  0.00000000E+00  0.00000000E+00  0.00000000E+00
  0.00000000E+00  0.00000000E+00  0.00000000E+00
  0.00000000E+00  0.00000000E+00  0.00000000E+00
  0.00000000E+00  0.00000000E+00  0.00000000E+00
  0.00000000E+00  0.00000000E+00  0.00000000E+00
  0.00000000E+00  0.00000000E+00  0.00000000E+00
  0.00000000E+00  0.00000000E+00  0.00000000E+00
  0.00000000E+00  0.00000000E+00  0.00000000E+00
  0.00000000E+00  0.00000000E+00  0.00000000E+00
  0.00000000E+00  0.00000000E+00  0.00000000E+00
  0.00000000E+00  0.00000000E+00  0.00000000E+00
  0.00000000E+00  0.00000000E+00  0.00000000E+00
  0.00000000E+00  0.00000000E+00  0.00000000E+00
  0.00000000E+00  0.00000000E+00  0.00000000E+00
  0.00000000E+00  0.00000000E+00  0.00000000E+00
  0.00000000E+00  0.00000000E+00  0.00000000E+00
  0.00000000E+00  0.00000000E+00  0.00000000E+00
  0.00000000E+00  0.00000000E+00  0.00000000E+00
  0.00000000E+00  0.00000000E+00  0.00000000E+00
  0.00000000E+00  0.00000000E+00  0.00000000E+00
  0.00000000E+00  0.00000000E+00  0.00000000E+00
  0.00000000E+00  0.00000000E+00  0.00000000E+00
  0.00000000E+00  0.00000000E+00  0.00000000E+00
  0.00000000E+00  0.00000000E+00  0.00000000E+00
  0.00000000E+00  0.00000000E+00  0.00000000E+00
  0.00000000E+00  0.00000000E+00  0.00000000E+00
  0.00000000E+00  0.00000000E+00  0.00000000E+00
  0.00000000E+00  0.00000000E+00  0.00000000E+00
  0.00000000E+00  0.00000000E+00  0.00000000E+00
  0.00000000E+00  0.00000000E+00  0.00000000E+00
  0.00000000E+00  0.00000000E+00  0.00000000E+00
  0.00000000E+00  0.00000000E+00  0.00000000E+00
