POSCAR generated by EDOPING
   1.000
    11.909860967098773     0.000000000000000     0.000000000000000
     0.000000000000001    11.909860967098773     0.000000000000000
     0.000000000000001     0.000000000000001    11.909860967098773
    H
    1
Direct
     0.000000000000000     0.000000000000000     0.000000000000000    H1
