Nb bcc
1.0
 -1.658866000000   1.658866000000   1.658866000000
  1.658866000000  -1.658866000000   1.658866000000
  1.658866000000   1.658866000000  -1.658866000000
Nb
1
Direct
  0.000000000000   0.000000000000   0.000000000000
