Ni fcc
1.0
  0.000000000000   1.742869000000   1.742869000000
  1.742869000000   0.000000000000   1.742869000000
  1.742869000000   1.742869000000   0.000000000000
Ni
1
Direct
  0.000000000000   0.000000000000   0.000000000000
